
List of user-set options:

                                    Name   Value                used
                           compl_inf_tol = 1                     yes
                         constr_viol_tol = 1                     yes
                            dual_inf_tol = 1000                  yes
                           linear_solver = ma97                  yes
                              ma86_small = 1e-30                  no
                                  ma86_u = 0.0001                 no
                              ma97_order = best                  yes
                              ma97_small = 1e-30                 yes
                            ma97_switch1 = at_start              yes
                            ma97_switch2 = od_hd_reuse           yes
                                  ma97_u = 1e-06                 yes
                               ma97_umax = 0.5                   yes
                                max_iter = 1000                  yes
                    max_refinement_steps = 20                    yes
                    min_refinement_steps = 5                     yes
                                 mu_init = 1e-06                 yes
           mu_superlinear_decrease_power = 1.25                  yes
                   nlp_scaling_min_value = 1e-08                 yes
                        option_file_name = Preset_Case:_676_NCP.opt  yes
                             output_file = ./tmp/Preset_Case:_676_NCP.output  yes
                      print_user_options = yes                   yes
        required_infeasibility_reduction = 1                      no
                                     tol = 1e-08                 yes
                   warm_start_bound_frac = 1e-20                 yes
                   warm_start_bound_push = 1e-20                 yes
                   warm_start_init_point = yes                   yes
              warm_start_mult_bound_push = 1e-20                 yes
                warm_start_mult_init_max = 1e+40                 yes
             warm_start_slack_bound_frac = 1e-20                 yes
             warm_start_slack_bound_push = 1e-20                 yes

******************************************************************************
This program contains Ipopt, a library for large-scale nonlinear optimization.
 Ipopt is released as open source code under the Eclipse Public License (EPL).
         For more information visit http://projects.coin-or.org/Ipopt
******************************************************************************

This is Ipopt version 3.12.10, running with linear solver ma97.

Number of nonzeros in equality constraint Jacobian...:   117167
Number of nonzeros in inequality constraint Jacobian.:      213
Number of nonzeros in Lagrangian Hessian.............:    47513

Total number of variables............................:    29977
                     variables with only lower bounds:    11312
                variables with lower and upper bounds:    15135
                     variables with only upper bounds:        0
Total number of equality constraints.................:    29864
Total number of inequality constraints...............:       25
        inequality constraints with only lower bounds:        4
   inequality constraints with lower and upper bounds:        0
        inequality constraints with only upper bounds:       21

iter    objective    inf_pr   inf_du lg(mu)  ||d||  lg(rg) alpha_du alpha_pr  ls
   0 -1.7446752e-01 2.50e-01 2.00e+00  -6.0 0.00e+00    -  0.00e+00 0.00e+00   0
In iteration 0, 8 Slacks too small, adjusting variable bounds
   1 -1.7446752e-01 2.50e-01 6.55e+02  -6.0 1.21e+10    -  6.54e-14 7.41e-19h  1
   2 -1.7446699e-01 2.50e-01 6.56e+02  -6.0 1.65e+02    -  1.26e-06 1.34e-05f  1
   3 -1.7446696e-01 2.50e-01 6.57e+02  -6.0 4.14e+01    -  2.27e-02 2.25e-06h  2
   4 -1.7446408e-01 2.50e-01 6.56e+02  -6.0 1.56e+02    -  2.34e-03 7.81e-05h  1
   5 -1.7402489e-01 2.44e-01 6.42e+02  -6.0 6.17e+01    -  2.77e-02 2.26e-02h  1
   6 -1.7371545e-01 2.40e-01 6.32e+02  -6.0 6.31e+01    -  2.29e-02 1.71e-02h  1
   7 -1.7206850e-01 2.19e-01 5.87e+02  -6.0 6.10e+01    -  1.73e-02 8.78e-02h  2
   8 -1.7090438e-01 2.05e-01 5.44e+02  -6.0 5.20e+01    -  7.85e-02 6.43e-02h  2
   9 -1.6977492e-01 1.87e-01 5.30e+02  -6.0 4.55e+01    -  5.68e-02 8.51e-02h  1
iter    objective    inf_pr   inf_du lg(mu)  ||d||  lg(rg) alpha_du alpha_pr  ls
  10 -1.6875626e-01 1.72e-01 3.74e+03  -6.0 4.61e+01    -  8.78e-02 8.00e-02h  1
  11 -1.6854181e-01 1.63e-01 6.98e+04  -6.0 5.38e+01    -  1.44e-01 5.32e-02h  1
  12 -1.6835043e-01 1.56e-01 1.15e+05  -6.0 5.08e+01    -  1.16e-01 4.65e-02h  3
  13 -1.6825648e-01 1.50e-01 2.75e+05  -6.0 4.94e+01    -  2.70e-01 3.55e-02h  4
  14 -1.6822997e-01 1.47e-01 3.01e+05  -6.0 4.73e+01    -  8.31e-02 2.18e-02h  5
  15 -1.6822892e-01 1.44e-01 4.01e+05  -6.0 4.60e+01    -  2.35e-01 2.07e-02h  5
  16 -1.6824780e-01 1.41e-01 3.99e+05  -6.0 4.35e+01    -  3.81e-02 2.01e-02h  5
  17 -1.6827347e-01 1.38e-01 4.77e+05  -6.0 4.26e+01    -  2.46e-01 2.01e-02h  5
  18 -1.6836874e-01 1.33e-01 4.65e+05  -6.0 4.09e+01    -  6.79e-02 4.02e-02h  4
  19 -1.6849568e-01 1.27e-01 4.46e+05  -6.0 4.24e+01    -  4.26e-02 4.06e-02h  4
iter    objective    inf_pr   inf_du lg(mu)  ||d||  lg(rg) alpha_du alpha_pr  ls
  20 -1.6863911e-01 1.22e-01 4.59e+05  -6.0 4.28e+01    -  1.55e-01 4.38e-02h  4
  21 -1.6867490e-01 1.19e-01 4.73e+05  -6.0 4.72e+01    -  1.20e-01 2.24e-02h  5
  22 -1.7016534e-01 1.08e+00 2.42e+05  -6.0 5.12e+01    -  9.75e-02 3.68e-01w  1
  23 -1.6932260e-01 9.90e-01 2.32e+05  -6.0 1.11e+02    -  1.25e-01 9.05e-02w  1
  24 -1.6900126e-01 9.22e-01 1.71e+05  -6.0 7.75e+01    -  1.23e-01 1.54e-01w  1
  25 -1.6876805e-01 1.16e-01 4.77e+05  -6.0 1.31e+02    -  9.75e-02 2.30e-02h  4
  26 -1.6974736e-01 1.17e+00 2.51e+05  -6.0 5.36e+01    -  1.61e-01 3.87e-01h  1
  27 -1.6964987e-01 1.17e+00 2.39e+05  -6.0 6.60e+02    -  7.66e-03 1.23e-03h  4
  28 -1.6960709e-01 1.16e+00 3.20e+05  -6.0 7.65e+01    -  1.22e-01 4.65e-03h  5
  29 -1.6959915e-01 1.16e+00 4.12e+05  -6.0 7.93e+01    -  1.63e-01 1.48e-03h  8
iter    objective    inf_pr   inf_du lg(mu)  ||d||  lg(rg) alpha_du alpha_pr  ls
  30 -1.6959819e-01 1.16e+00 5.15e+05  -6.0 1.04e+02    -  2.35e-01 1.05e-04h 11
  31 -1.6857525e-01 1.08e+00 4.76e+05  -6.0 1.21e+02    -  7.52e-02 7.52e-02s 19
  32 -1.6547883e-01 1.08e+00 3.72e+05  -6.0 1.23e+02    -  2.19e-01 2.19e-01s 19
  33 -1.6204005e-01 1.18e+00 2.73e+05  -6.0 1.32e+02    -  2.67e-01 2.67e-01s 19
  34 -1.6060336e-01 1.17e+00 2.28e+05  -6.0 1.17e+02    -  1.64e-01 1.64e-01s 19
  35 -1.5835965e-01 1.15e+00 1.73e+05  -6.0 9.22e+01    -  2.41e-01 2.41e-01s 19
  36 -1.5557758e-01 2.26e+00 1.09e+05  -6.0 9.28e+01    -  3.72e-01 3.72e-01s 19
  37 -1.5560339e-01 2.20e+00 1.05e+05  -6.0 2.22e+01  -4.0 3.29e-02 3.29e-02s 19
  38 -1.5593506e-01 2.31e+00 1.02e+05  -6.0 8.47e+01  -4.5 3.08e-02 3.08e-02s 19
  39 -1.5577900e-01 2.30e+00 1.01e+05  -6.0 7.31e+01  -3.1 9.44e-03 9.44e-03s 19
iter    objective    inf_pr   inf_du lg(mu)  ||d||  lg(rg) alpha_du alpha_pr  ls
  40 -1.5493576e-01 1.97e+00 8.68e+04  -6.0 6.44e+01    -  1.42e-01 1.42e-01s 19
  41 -1.5443836e-01 1.80e+00 7.91e+04  -6.0 6.28e+01    -  8.75e-02 8.75e-02s 19
  42r-1.5443836e-01 1.80e+00 1.00e+03  -0.1 0.00e+00    -  0.00e+00 0.00e+00R  1
  43r-1.5404847e-01 1.79e+00 1.00e+03  -0.1 8.51e+03    -  9.95e-06 4.16e-06f  1
  44r-1.5228526e-01 1.74e+00 1.00e+03  -0.1 6.60e+03    -  1.15e-05 3.13e-05f  1
  45r-1.5063821e-01 1.66e+00 1.13e+03  -0.1 4.27e+03    -  9.78e-05 4.62e-05f  1
  46 -1.5108902e-01 1.46e+00 7.82e+04  -6.0 2.48e+01    -  4.99e-01 1.25e-01h  1
  47 -1.5257466e-01 1.02e+00 2.02e+05  -6.0 3.23e+01    -  1.25e-01 3.01e-01h  1
  48 -1.5399591e-01 7.34e-01 1.46e+05  -6.0 1.70e+01    -  5.56e-01 2.78e-01h  1
  49 -1.5490417e-01 6.30e-01 1.25e+05  -6.0 4.21e+01    -  4.70e-01 1.43e-01h  1
iter    objective    inf_pr   inf_du lg(mu)  ||d||  lg(rg) alpha_du alpha_pr  ls
  50 -1.5618459e-01 5.42e-01 1.07e+05  -6.0 6.48e+01    -  7.81e-01 1.38e-01h  1
  51 -1.6969566e-01 1.71e+00 2.73e+04  -6.0 2.25e+02    -  2.47e-01 7.46e-01h  1
  52 -1.7545277e-01 2.02e+00 1.02e+04  -6.0 2.51e+02    -  3.90e-01 6.26e-01h  1
  53 -1.7908717e-01 2.18e+00 3.54e+03  -6.0 2.98e+02    -  3.17e-01 6.53e-01h  1
  54 -1.8418219e-01 2.44e+00 1.07e+02  -6.0 2.87e+02    -  7.45e-01 1.00e+00h  1
  55 -1.8559421e-01 2.14e+00 4.97e+01  -6.0 6.78e+02    -  2.98e-01 1.51e-01h  1
Error in an AMPL evaluation. Run with "halt_on_ampl_error yes" to see details.
Warning: Cutting back alpha due to evaluation error
  56 -1.8988807e-01 7.05e+00 3.87e+01  -6.0 1.76e+03    -  3.89e-01 3.27e-01h  2
  57 -1.8979106e-01 5.02e-02 9.77e+03  -6.0 1.68e+00  -3.6 6.01e-02 1.00e+00h  1
  58 -1.8978170e-01 3.80e-03 8.81e+02  -6.0 1.16e-01  -3.2 2.49e-01 9.25e-01h  1
  59 -1.8979887e-01 1.42e-04 2.01e-01  -6.0 8.43e-02  -3.7 1.00e+00 1.00e+00f  1
iter    objective    inf_pr   inf_du lg(mu)  ||d||  lg(rg) alpha_du alpha_pr  ls
  60 -1.8983938e-01 9.72e-04 4.66e-02  -6.0 2.11e-01  -4.2 1.00e+00 1.00e+00h  1
  61 -1.8988603e-01 1.98e-03 2.41e+00  -6.0 5.57e-01  -4.6 1.00e+00 5.33e-01h  1
  62 -1.9011475e-01 3.11e-03 3.21e-01  -6.0 2.12e+00  -5.1 1.00e+00 1.00e+00f  1
  63 -1.9031035e-01 2.74e-03 2.73e-01  -6.0 1.05e+00  -4.7 1.00e+00 1.00e+00h  1
  64 -1.9081711e-01 1.73e-02 8.52e+00  -6.0 5.00e+00  -5.2 3.80e-01 5.29e-01h  1
  65 -1.9086649e-01 1.73e-02 4.84e+04  -6.0 5.47e+00  -5.6 1.00e+00 5.16e-02h  1
  66 -1.9216339e-01 1.19e-01 1.10e+04  -6.0 8.12e+00  -6.1 4.61e-01 6.50e-01f  1
  67 -1.9224089e-01 1.17e-01 2.08e+05  -6.0 1.83e+01  -6.6 4.23e-01 1.78e-02h  1
  68 -1.9239258e-01 1.32e-01 6.03e+06  -6.0 1.22e+03  -7.1 4.03e-04 9.07e-03h  1
  69 -1.9425366e-01 1.39e+00 3.61e+06  -6.0 2.67e+02  -7.5 9.31e-02 3.91e-01f  1
iter    objective    inf_pr   inf_du lg(mu)  ||d||  lg(rg) alpha_du alpha_pr  ls
  70 -1.9531062e-01 3.64e+00 1.77e+06  -6.0 1.59e+02  -7.1 3.25e-01 5.12e-01h  1
  71 -1.9584726e-01 4.15e+00 1.50e+06  -6.0 1.13e+02  -6.7 9.00e-01 1.52e-01h  1
  72 -1.9603419e-01 3.92e-01 8.69e+03  -6.0 7.14e+01  -7.2 4.79e-01 1.00e+00h  1
  73 -1.9708819e-01 2.78e-01 6.02e+03  -6.0 1.07e+02  -7.6 3.16e-01 3.04e-01h  1
  74 -1.9741043e-01 5.33e-01 5.44e+03  -6.0 5.08e+02  -8.1 9.85e-02 9.66e-02h  1
  75 -2.0537529e-01 9.60e+00 1.98e+03  -6.0 6.62e+02  -8.6 1.64e-01 1.00e+00h  1
  76 -2.0563235e-01 8.54e+00 1.62e+03  -6.0 2.58e+02  -7.3 2.02e-01 1.10e-01h  1
  77 -2.0571113e-01 8.50e+00 9.15e+02  -6.0 2.06e+03  -7.7 2.33e-02 4.78e-03h  1
  78 -2.0680711e-01 3.88e+00 2.27e+02  -6.0 1.52e+02  -7.3 4.44e-01 5.46e-01h  1
  79 -2.0799248e-01 3.70e+00 9.44e+01  -6.0 2.16e+03  -7.8 1.06e-01 4.55e-02h  1
iter    objective    inf_pr   inf_du lg(mu)  ||d||  lg(rg) alpha_du alpha_pr  ls
  80 -2.0865759e-01 1.86e+00 1.16e+02  -6.0 6.40e+01  -7.4 7.95e-02 5.00e-01h  1
  81 -2.0912560e-01 1.57e+00 5.58e+02  -6.0 2.72e+02  -7.9 4.58e-01 1.65e-01h  1
  82 -2.1000120e-01 1.51e+00 1.07e+03  -6.0 2.70e+03  -8.3 5.49e-06 4.96e-02h  1
  83 -2.1025732e-01 1.44e+00 1.08e+03  -6.0 5.33e+02  -7.9 9.42e-02 4.58e-02h  1
  84 -2.1101846e-01 1.09e+00 1.56e+04  -6.0 1.88e+02  -7.5 2.86e-05 2.52e-01h  1
  85 -2.1100367e-01 1.07e+00 2.40e+04  -6.0 7.16e+00  -3.4 1.66e-03 1.69e-02h  1
  86 -2.1096966e-01 9.47e-01 3.65e+04  -6.0 3.42e+00  -3.0 1.79e-02 1.13e-01h  1
  87 -2.1086430e-01 7.93e-01 3.18e+04  -6.0 2.97e+00  -3.5 7.59e-02 1.63e-01h  1
  88 -2.1077699e-01 2.66e-02 2.81e+03  -6.0 1.58e+00  -3.1 6.99e-02 1.00e+00h  1
  89 -2.1078018e-01 1.94e-02 1.68e+03  -6.0 3.20e-01  -2.6 8.66e-01 2.70e-01h  1
iter    objective    inf_pr   inf_du lg(mu)  ||d||  lg(rg) alpha_du alpha_pr  ls
  90 -2.1077973e-01 7.53e-03 6.19e+02  -6.0 2.43e-01  -2.2 1.00e+00 6.12e-01h  1
  91 -2.1078499e-01 1.35e-05 4.90e-01  -6.0 1.06e-01  -2.7 1.00e+00 1.00e+00f  1
  92 -2.1081404e-01 3.55e-05 1.11e-01  -6.0 1.04e-01  -3.2 1.00e+00 1.00e+00h  1
  93 -2.1087826e-01 1.57e-04 1.22e+00  -6.0 2.96e-01  -3.6 1.00e+00 7.46e-01h  1
  94 -2.1104636e-01 1.16e-03 6.35e+00  -6.0 6.01e-01  -4.1 1.00e+00 1.00e+00f  1
  95 -2.1127701e-01 2.65e-03 1.14e+01  -6.0 1.37e+00  -4.6 6.42e-01 5.14e-01h  1
  96 -2.1140774e-01 2.84e-03 8.67e+01  -6.0 2.97e+00  -5.1 1.00e+00 1.62e-01f  1
  97 -2.1195800e-01 2.14e-02 1.01e+02  -6.0 5.88e+00  -5.6 2.77e-01 7.27e-01f  1
  98 -2.1208561e-01 9.72e-03 5.09e+01  -6.0 8.73e+00  -6.0 5.63e-01 4.71e-01f  1
  99 -2.1280695e-01 2.57e-02 9.58e+00  -6.0 1.52e+01  -6.5 1.00e+00 1.00e+00f  1
iter    objective    inf_pr   inf_du lg(mu)  ||d||  lg(rg) alpha_du alpha_pr  ls
 100 -2.1353597e-01 7.00e-02 2.71e+00  -6.0 4.50e+01  -7.0 8.93e-01 1.00e+00h  1
 101 -2.1406124e-01 1.13e-01 7.79e+00  -6.0 1.36e+02  -7.5 5.21e-01 2.28e-01h  1
 102 -2.1439836e-01 1.36e-01 1.72e+01  -6.0 2.61e+02  -7.9 4.87e-01 8.14e-02h  1
 103 -2.1931494e-01 2.33e+01 3.81e+01  -6.0 1.33e+03  -8.4 3.86e-01 3.81e-01h  1
 104 -2.2402333e-01 2.03e+01 4.94e+01  -6.0 3.30e+03  -8.9 3.24e-01 1.80e-01h  1
 105 -2.2502848e-01 1.77e+01 4.25e+01  -6.0 7.01e+02  -8.5 1.90e-01 1.29e-01h  1
 106 -2.2606152e-01 1.08e+01 2.79e+01  -6.0 2.92e+02  -8.0 2.07e-01 3.81e-01h  1
 107 -2.2707439e-01 1.05e+01 2.63e+01  -6.0 3.86e+03  -8.5 9.45e-02 4.03e-02h  1
 108 -2.2792912e-01 9.06e+00 2.25e+01  -6.0 4.16e+02  -8.1 2.24e-01 1.40e-01h  1
 109 -2.2803992e-01 8.61e+00 2.31e+01  -6.0 1.40e+02  -7.7 9.87e-01 5.01e-02h  1
iter    objective    inf_pr   inf_du lg(mu)  ||d||  lg(rg) alpha_du alpha_pr  ls
 110 -2.2843958e-01 7.01e+00 1.74e+01  -6.0 2.25e+02  -8.1 1.00e+00 1.86e-01h  1
 111 -2.2910724e-01 1.88e-01 2.87e+00  -6.0 9.01e+01  -7.7 8.48e-01 1.00e+00h  1
 112 -2.3001952e-01 3.75e-01 1.34e+00  -6.0 2.29e+02  -8.2 5.14e-01 5.37e-01h  1
 113 -2.3151959e-01 5.22e+00 5.04e+01  -6.0 6.34e+03  -8.7 6.34e-02 9.71e-02h  1
 114 -2.3224816e-01 3.41e+00 4.56e+01  -6.0 4.11e+02  -8.2 2.87e-01 3.71e-01h  1
 115 -2.3253924e-01 4.15e+00 2.92e+02  -6.0 1.12e+03  -8.7 3.87e-02 4.80e-02h  1
 116 -2.3341289e-01 4.16e+00 7.89e+01  -6.0 2.04e+02  -8.3 1.68e-01 2.56e-01h  1
 117 -2.3356681e-01 4.15e+00 7.82e+01  -6.0 1.24e+03  -8.8 8.10e-02 1.36e-02h  1
 118 -2.3461239e-01 7.20e+00 9.32e+01  -6.0 1.82e+03  -9.2 1.50e-02 8.16e-02h  1
 119 -2.3527090e-01 6.67e+00 1.15e+02  -6.0 3.72e+03  -9.7 1.52e-01 7.35e-02h  1
iter    objective    inf_pr   inf_du lg(mu)  ||d||  lg(rg) alpha_du alpha_pr  ls
 120 -2.3560887e-01 5.75e+00 1.85e+02  -6.0 4.42e+02  -8.4 4.40e-01 1.38e-01h  1
 121 -2.3724862e-01 1.67e+00 2.36e+02  -6.0 1.58e+02  -8.0 2.39e-01 9.41e-01h  1
 122 -2.3770890e-01 1.36e+00 3.01e+02  -6.0 2.72e+02  -8.4 4.42e-01 1.89e-01h  1
 123 -2.3938201e-01 8.75e-01 9.66e+02  -6.0 6.02e+02  -8.9 7.26e-01 3.67e-01h  1
 124 -2.4148098e-01 2.34e+00 1.25e+03  -6.0 1.19e+03  -9.4 2.68e-03 3.18e-01h  1
 125 -2.4252489e-01 1.91e+00 1.54e+03  -6.0 5.74e+02  -9.0 5.93e-01 3.05e-01h  1
 126 -2.4585789e-01 1.28e+01 3.24e+03  -6.0 1.29e+03  -9.5 2.06e-01 6.33e-01h  1
 127 -2.4615550e-01 1.23e+01 2.59e+02  -6.0 2.70e+03  -9.9 1.61e-01 5.17e-02h  1
 128 -2.4690647e-01 1.11e+01 2.52e+03  -6.0 4.90e+03 -10.4 3.54e-02 1.28e-01h  1
 129 -2.4693719e-01 1.08e+01 2.22e+03  -6.0 1.51e+03  -8.2 4.09e-02 3.44e-02h  1
iter    objective    inf_pr   inf_du lg(mu)  ||d||  lg(rg) alpha_du alpha_pr  ls
 130 -2.4739576e-01 7.27e+00 3.72e+03  -6.0 2.73e+02  -8.7 5.06e-01 3.39e-01h  1
 131 -2.4855081e-01 4.12e+00 6.66e+03  -6.0 7.29e+02  -9.1 3.93e-01 5.41e-01h  1
 132 -2.4871114e-01 4.05e+00 1.22e+06  -6.0 4.01e+03  -9.6 7.71e-04 1.85e-02h  1
 133 -2.4865897e-01 5.92e+01 1.17e+06  -6.0 4.98e+04 -10.1 8.09e-03 3.78e-02f  1
 134 -2.4944626e-01 5.14e+01 9.45e+05  -6.0 6.18e+03 -10.6 1.39e-01 1.94e-01h  1
 135 -2.4980312e-01 4.58e+01 8.42e+05  -6.0 3.33e+03 -10.1 7.51e-02 1.09e-01h  1
 136 -2.4996709e-01 4.42e+01 8.12e+05  -6.0 1.12e+05    -  5.46e-04 3.56e-02H  1
 137 -2.5044799e-01 4.24e+01 7.80e+05  -6.0 6.75e+04    -  2.00e-02 3.94e-02h  1
 138 -2.5076569e-01 3.60e+01 6.55e+05  -6.0 2.90e+03    -  3.59e-01 1.60e-01h  1
 139 -2.5122675e-01 4.12e+01 4.66e+05  -6.0 3.94e+03    -  5.03e-02 2.88e-01h  1
iter    objective    inf_pr   inf_du lg(mu)  ||d||  lg(rg) alpha_du alpha_pr  ls
 140 -2.5131184e-01 3.97e+01 4.48e+05  -6.0 2.91e+03    -  1.99e-01 3.88e-02h  1
 141 -2.5152853e-01 3.53e+01 3.62e+05  -6.0 3.04e+03    -  1.60e-01 1.91e-01h  1
 142 -2.5155838e-01 3.44e+01 3.53e+05  -6.0 3.80e+03    -  8.78e-02 2.59e-02h  1
 143 -2.5161092e-01 3.25e+01 3.33e+05  -6.0 3.91e+03    -  4.74e-02 5.55e-02h  1
 144 -2.5165045e-01 3.04e+01 3.12e+05  -6.0 1.92e+02  -6.1 1.35e-03 6.50e-02h  1
 145 -2.5169881e-01 2.13e+01 6.40e+05  -6.0 1.70e+01  -5.7 1.50e-02 3.01e-01h  1
 146 -2.5174059e-01 8.19e+00 2.47e+05  -6.0 5.93e+00  -6.1 5.43e-01 6.15e-01h  1
 147 -2.5178897e-01 8.58e-03 7.10e+01  -6.0 7.18e+00  -6.6 8.18e-01 1.00e+00h  1
 148 -2.5184074e-01 5.03e-03 8.89e+00  -6.0 8.09e+00  -7.1 1.00e+00 8.85e-01h  1
 149 -2.5186775e-01 6.58e-03 8.41e-01  -6.0 1.57e+01  -7.6 1.00e+00 9.38e-01h  1
iter    objective    inf_pr   inf_du lg(mu)  ||d||  lg(rg) alpha_du alpha_pr  ls
 150 -2.5185318e-01 1.10e-02 2.03e-01  -6.0 2.40e+01  -8.1 1.00e+00 1.00e+00f  1
 151 -2.5186126e-01 9.72e-02 8.25e-02  -6.0 7.39e+01  -8.5 1.00e+00 1.00e+00h  1
 152 -2.5167861e-01 2.00e+00 6.96e+00  -6.0 2.37e+04    -  2.39e-02 4.77e-02h  1
 153 -2.5183178e-01 9.44e+00 1.06e+01  -6.0 2.90e+03    -  4.35e-01 5.41e-01h  1
 154 -2.5181457e-01 4.45e-01 3.24e+00  -6.0 5.08e+01  -9.0 6.16e-01 1.00e+00h  1
 155 -2.5182587e-01 1.22e-02 6.77e-03  -6.0 1.12e+01  -8.6 1.00e+00 1.00e+00h  1
 156 -2.5182840e-01 3.35e-02 7.95e-03  -6.0 2.85e+01  -9.1 1.00e+00 1.00e+00h  1
 157 -2.5182305e-01 1.37e-01 2.84e-02  -6.0 6.71e+01  -9.5 1.00e+00 1.00e+00h  1
 158 -2.5180812e-01 7.30e-01 1.48e-01  -6.0 2.25e+02 -10.0 1.00e+00 1.00e+00h  1
 159 -2.5181153e-01 1.22e+00 4.41e+00  -6.0 2.67e+03 -10.5 1.07e-01 8.62e-02h  3
iter    objective    inf_pr   inf_du lg(mu)  ||d||  lg(rg) alpha_du alpha_pr  ls
 160 -2.5180725e-01 1.90e+00 1.50e+01  -6.0 2.41e+03 -10.1 1.38e-01 8.82e-02h  4
 161 -2.5180125e-01 1.53e-02 3.55e-02  -6.0 2.75e+01  -8.7 1.00e+00 1.00e+00h  1
 162 -2.5181313e-01 2.12e-02 1.76e-02  -6.0 3.47e+01  -9.2 1.00e+00 1.00e+00h  1
 163 -2.5181502e-01 2.72e-01 1.56e-01  -6.0 1.24e+02  -9.7 1.00e+00 1.00e+00h  1
 164 -2.5182458e-01 8.10e-01 4.85e+01  -6.0 7.66e+02 -10.2 1.00e+00 2.42e-01h  2
 165 -2.5182165e-01 1.01e+00 4.45e+01  -6.0 2.58e+03 -10.6 1.40e-01 8.54e-02h  4
 166 -2.5185049e-01 9.50e-02 2.90e-01  -6.0 7.49e+01  -9.3 1.00e+00 1.00e+00h  1
 167 -2.5184430e-01 1.41e+00 7.30e-01  -6.0 2.86e+02  -9.8 1.00e+00 1.00e+00h  1
 168 -2.5182667e-01 2.27e+00 2.47e-01  -6.0 4.03e+02 -10.3 1.00e+00 1.00e+00h  1
 169 -2.5182841e-01 5.57e+00 2.25e+01  -6.0 1.31e+03 -10.7 1.00e+00 4.23e-01h  1
iter    objective    inf_pr   inf_du lg(mu)  ||d||  lg(rg) alpha_du alpha_pr  ls
 170 -2.5181596e-01 3.17e+01 4.82e+01  -6.0 4.93e+03 -11.2 6.76e-01 3.39e-01H  1
 171 -2.5174233e-01 9.75e+01 1.88e+03  -6.0 3.48e+03    -  2.00e-01 7.68e-01h  1
 172 -2.5173067e-01 4.44e+01 1.11e+03  -6.0 1.87e+03    -  1.86e-02 1.00e+00h  1
 173 -2.5173515e-01 4.19e+01 1.88e+03  -6.0 3.18e+03    -  1.00e+00 6.92e-02h  1
 174 -2.5175154e-01 1.58e+01 5.83e+02  -6.0 1.18e+03    -  1.45e-01 1.00e+00h  1
 175 -2.5177461e-01 8.36e+00 1.88e+02  -6.0 8.09e+02    -  1.00e+00 7.01e-01h  1
 176 -2.5178287e-01 1.72e+00 4.15e+00  -6.0 3.79e+02    -  1.00e+00 1.00e+00h  1
 177 -2.5178090e-01 1.14e+00 3.97e-01  -6.0 3.14e+02    -  1.00e+00 1.00e+00h  1
 178 -2.5178086e-01 5.58e-03 1.16e-03  -6.0 2.31e+01    -  1.00e+00 1.00e+00h  1
 179 -2.5178086e-01 6.33e-07 5.60e-08  -6.0 2.29e-01    -  1.00e+00 1.00e+00h  1
iter    objective    inf_pr   inf_du lg(mu)  ||d||  lg(rg) alpha_du alpha_pr  ls
 180 -2.5222548e-01 8.24e-01 2.01e+01  -7.5 6.47e+03    -  2.34e-01 1.60e-01f  1
 181 -2.5237351e-01 8.51e-01 7.57e+01  -7.5 3.83e+03    -  3.49e-01 8.04e-02h  1
 182 -2.5298474e-01 3.92e+00 3.98e+01  -7.5 3.92e+03    -  2.19e-01 3.35e-01h  1
 183 -2.5316316e-01 4.22e+00 4.40e+01  -7.5 4.88e+03    -  5.28e-02 9.60e-02h  1
 184 -2.5340450e-01 6.84e+00 6.71e+01  -7.5 6.64e+03 -10.8 2.84e-02 1.14e-01h  1
 185 -2.5343352e-01 6.74e+00 4.90e+01  -7.5 2.36e+03    -  7.27e-02 2.60e-02h  1
 186 -2.5348182e-01 7.05e+00 4.29e+01  -7.5 4.47e+03    -  6.92e-02 3.80e-02h  1
 187 -2.5365336e-01 7.97e+00 3.33e+01  -7.5 2.14e+03    -  7.90e-02 1.69e-01h  1
 188 -2.5396452e-01 1.34e+01 9.20e+01  -7.5 2.00e+03    -  7.55e-02 3.37e-01h  1
 189 -2.5410097e-01 1.25e+01 1.25e+02  -7.5 1.52e+03    -  8.63e-02 1.75e-01h  1
iter    objective    inf_pr   inf_du lg(mu)  ||d||  lg(rg) alpha_du alpha_pr  ls
 190 -2.5416706e-01 1.31e+01 1.33e+02  -7.5 1.09e+04 -10.4 5.60e-02 7.62e-02h  1
 191 -2.5419179e-01 1.27e+01 1.35e+02  -7.5 8.66e+03 -10.9 1.92e-02 2.85e-02h  1
 192 -2.5473480e-01 1.77e+01 5.54e+02  -7.5 1.32e+03    -  5.44e-02 6.91e-01h  1
 193 -2.5489959e-01 1.34e+01 7.76e+02  -7.5 5.42e+02  -9.5 5.68e-02 2.48e-01h  1
 194 -2.5499077e-01 1.34e+01 5.90e+02  -7.5 2.84e+03 -10.0 1.28e-01 7.79e-02h  1
 195 -2.5526046e-01 9.66e+00 6.86e+02  -7.5 6.27e+02 -10.5 2.59e-01 3.82e-01h  1
 196 -2.5547664e-01 1.83e+01 6.86e+02  -7.5 6.00e+04 -11.0 8.09e-03 1.03e-02h  1
 197 -2.5567142e-01 1.25e+01 1.27e+03  -7.5 1.16e+03    -  1.10e-01 3.23e-01h  1
 198 -2.5574898e-01 1.09e+01 1.57e+03  -7.5 9.53e+02    -  2.72e-02 1.27e-01h  1
 199 -2.5583331e-01 8.62e+00 7.74e+02  -7.5 8.52e+02    -  3.24e-01 2.12e-01h  1
iter    objective    inf_pr   inf_du lg(mu)  ||d||  lg(rg) alpha_du alpha_pr  ls
 200 -2.5586492e-01 7.76e+00 1.96e+03  -7.5 8.80e+02    -  4.84e-01 9.98e-02h  1
 201 -2.5586540e-01 7.74e+00 2.02e+03  -7.5 1.19e+03    -  5.73e-03 1.88e-03h  1
 202 -2.5591792e-01 5.33e+00 3.64e+03  -7.5 7.96e+02    -  1.88e-03 3.12e-01h  1
 203 -2.5594541e-01 3.56e+00 1.71e+05  -7.5 4.10e+02    -  2.99e-03 3.31e-01h  1
 204 -2.5595175e-01 2.98e+00 1.43e+05  -7.5 1.34e+02    -  2.39e-01 1.64e-01h  1
 205 -2.5597777e-01 5.44e-01 2.61e+04  -7.5 1.28e+02    -  8.25e-01 8.18e-01h  1
 206 -2.5597116e-01 2.41e-01 1.16e+04  -7.5 1.24e+02 -11.4 2.04e-03 5.57e-01h  1
 207 -2.5597155e-01 1.77e-04 1.06e+01  -7.5 9.01e-01  -6.5 1.00e+00 1.00e+00h  1
 208 -2.5598115e-01 1.99e+01 1.78e+00  -7.5 1.57e+03    -  2.17e-01 8.33e-01h  1
 209 -2.5597907e-01 1.06e+01 4.26e-01  -7.5 9.52e+02    -  1.51e-01 1.00e+00h  1
iter    objective    inf_pr   inf_du lg(mu)  ||d||  lg(rg) alpha_du alpha_pr  ls
 210 -2.5597768e-01 3.36e-01 8.67e-03  -7.5 1.58e+02    -  1.00e+00 1.00e+00h  1
 211 -2.5597774e-01 9.12e-06 4.73e-05  -7.5 3.05e-01  -7.0 1.00e+00 1.00e+00h  1
 212 -2.5597825e-01 4.41e-01 6.60e-04  -7.5 5.87e+01    -  1.00e+00 1.00e+00h  1
 213 -2.5597820e-01 8.45e-01 2.72e-02  -7.5 1.31e+02    -  5.27e-01 1.00e+00h  1
 214 -2.5597820e-01 1.22e-06 3.03e-08  -7.5 8.42e-01  -7.4 1.00e+00 1.00e+00h  1
 215 -2.5597821e-01 2.23e-01 1.95e-04  -7.5 1.16e+02    -  1.00e+00 1.00e+00h  1
 216 -2.5597821e-01 1.16e-06 1.62e-08  -7.5 2.22e-01  -7.9 1.00e+00 1.00e+00h  1
 217 -2.5597821e-01 2.80e-07 8.45e-10  -7.5 9.53e-02  -8.4 1.00e+00 1.00e+00h  1
 218 -2.5598106e-01 3.97e-05 9.86e+00  -9.0 1.69e+01  -8.9 1.00e+00 2.55e-01h  1
 219 -2.5598160e-01 4.40e-05 8.77e+00  -9.0 8.57e+00  -9.4 1.00e+00 1.17e-01h  1
iter    objective    inf_pr   inf_du lg(mu)  ||d||  lg(rg) alpha_du alpha_pr  ls
 220 -2.5598292e-01 5.70e-03 3.76e-01  -9.0 1.87e+01  -9.8 1.00e+00 9.57e-01h  1
 221 -2.5598329e-01 1.64e-02 7.79e-04  -9.0 4.11e+01 -10.3 1.00e+00 1.00e+00h  1
 222 -2.5598369e-01 1.54e-02 2.72e-03  -9.0 8.10e+01 -10.8 1.00e+00 1.00e+00h  1
 223 -2.5598389e-01 1.62e-02 2.84e-03  -9.0 9.57e+01 -11.3 1.00e+00 1.00e+00h  1
 224 -2.5598385e-01 1.38e-02 5.37e-04  -9.0 5.93e+01 -11.7 1.00e+00 1.00e+00H  1
 225 -2.5598390e-01 5.42e-03 2.68e-05  -9.0 1.93e+02 -12.2 1.00e+00 1.00e+00H  1
 226 -2.5598405e-01 6.94e+00 3.80e-04  -9.0 7.59e+02 -12.7 1.00e+00 1.00e+00h  1
 227 -2.5598446e-01 9.57e+01 6.60e-03  -9.0 3.83e+04 -13.2 5.70e-02 7.05e-02h  1
 228 -2.5598443e-01 2.25e+01 1.65e-01  -9.0 1.37e+03    -  5.64e-02 1.00e+00h  1
 229r-2.5598443e-01 2.25e+01 9.99e+02   1.1 0.00e+00 -12.7 0.00e+00 3.25e-07R 14
iter    objective    inf_pr   inf_du lg(mu)  ||d||  lg(rg) alpha_du alpha_pr  ls
 230r-2.5598319e-01 2.25e+01 6.01e+03   1.1 1.14e+07    -  5.83e-10 1.32e-10f  1
 231 -2.5598760e-01 2.43e+01 9.55e-01  -9.0 7.24e+04    -  8.96e-04 4.52e-02h  1
 232 -2.5604592e-01 2.43e+01 9.54e-01  -9.0 6.73e+04    -  2.04e-06 1.06e-03h  1
 233 -2.5604826e-01 2.43e+01 9.54e-01  -9.0 2.40e+05    -  7.07e-05 3.83e-05h  1
 234 -2.5608878e-01 2.43e+01 9.50e-01  -9.0 5.69e+04    -  1.05e-02 3.85e-03h  1
 235 -2.5622624e-01 2.47e+01 9.39e-01  -9.0 5.23e+04    -  1.53e-02 1.16e-02h  1
 236 -2.5636751e-01 2.56e+01 9.14e-01  -9.0 3.62e+04    -  7.04e-02 2.70e-02h  1
 237 -2.5653765e-01 8.79e+01 7.93e-01  -9.0 1.84e+04    -  1.03e-02 1.33e-01h  1
 238 -2.5653207e-01 8.53e+01 7.68e-01  -9.0 1.87e+04    -  3.39e-02 3.14e-02h  2
 239 -2.5646333e-01 6.29e+01 5.85e-01  -9.0 2.35e+03 -11.4 8.00e-02 2.63e-01h  1
iter    objective    inf_pr   inf_du lg(mu)  ||d||  lg(rg) alpha_du alpha_pr  ls
 240 -2.5610152e-01 8.64e+00 2.71e+00  -9.0 1.59e+03 -11.9 4.64e-01 8.70e-01h  1
 241 -2.5609183e-01 8.15e+00 4.26e+04  -9.0 4.90e+02 -12.4 1.11e-04 5.78e-02h  1
 242 -2.5601335e-01 4.07e+00 2.09e+04  -9.0 5.94e+01  -7.4 1.49e-03 5.00e-01h  2
 243 -2.5601051e-01 3.93e+00 2.02e+04  -9.0 4.21e+01  -7.9 4.82e-01 3.62e-02h  1
 244 -2.5599104e-01 2.95e+00 1.51e+04  -9.0 3.67e+00  -7.5 3.75e-01 2.50e-01h  3
 245 -2.5598742e-01 2.76e+00 1.42e+04  -9.0 1.26e+01  -8.0 1.00e+00 6.25e-02h  5
 246 -2.5598571e-01 2.68e+00 1.37e+04  -9.0 2.32e+00  -7.5 1.00e+00 3.12e-02h  6
 247 -2.5598489e-01 2.63e+00 1.35e+04  -9.0 1.41e+01  -8.0 1.00e+00 1.56e-02h  7
 248 -2.5598479e-01 2.63e+00 1.35e+04  -9.0 2.58e+00  -7.6 1.00e+00 1.95e-03h 10
 249 -2.5593371e-01 1.80e-03 3.68e+00  -9.0 2.06e+01  -8.1 1.00e+00 1.00e+00h  1
iter    objective    inf_pr   inf_du lg(mu)  ||d||  lg(rg) alpha_du alpha_pr  ls
 250 -2.5593717e-01 2.45e-02 1.56e-02  -9.0 2.54e+01  -8.5 1.00e+00 1.00e+00h  1
 251 -2.5593888e-01 3.10e-02 7.99e+00  -9.0 9.71e+01  -9.0 1.00e+00 1.15e-01h  1
 252 -2.5595711e-01 1.76e+00 1.52e-02  -9.0 2.32e+02  -9.5 9.97e-01 1.00e+00h  1
 253 -2.5597805e-01 1.99e+00 1.52e-02  -9.0 7.36e+02 -10.0 2.95e-01 3.59e-01h  1
 254 -2.5610653e-01 5.17e+01 1.19e+00  -9.0 2.44e+03 -10.4 4.32e-01 6.67e-01h  1
 255 -2.5605417e-01 2.82e+01 7.94e+02  -9.0 1.07e+03 -10.9 1.00e+00 6.14e-01h  1
 256 -2.5609148e-01 2.64e+01 6.37e+02  -9.0 2.14e+03 -11.4 2.10e-01 2.05e-01h  1
 257 -2.5619330e-01 4.44e+01 1.30e+02  -9.0 3.15e+03 -11.9 2.91e-01 3.63e-01h  1
 258 -2.5619976e-01 1.22e+01 8.83e+04  -9.0 9.06e+02 -12.4 3.72e-02 1.00e+00h  1
 259 -2.5623710e-01 1.04e+01 7.51e+04  -9.0 2.06e+03 -10.1 3.10e-01 1.49e-01h  1
iter    objective    inf_pr   inf_du lg(mu)  ||d||  lg(rg) alpha_du alpha_pr  ls
 260 -2.5629494e-01 8.01e+00 5.80e+04  -9.0 1.47e+03  -9.7 1.04e-01 2.28e-01h  1
 261 -2.5633116e-01 7.69e+00 5.58e+04  -9.0 4.86e+03 -10.2 3.31e-01 3.90e-02h  1
 262 -2.5641084e-01 8.72e+00 5.30e+04  -9.0 8.24e+03 -10.6 4.82e-01 5.02e-02h  1
 263 -2.5642361e-01 2.21e+00 1.34e+04  -9.0 5.39e+01 -11.1 8.50e-01 7.47e-01h  1
 264 -2.5642570e-01 4.57e-01 5.50e+02  -9.0 1.61e+02 -11.6 1.66e-01 9.59e-01h  1
 265 -2.5642913e-01 3.61e+00 3.64e-01  -9.0 4.81e+02 -12.1 1.00e+00 1.00e+00h  1
 266 -2.5643095e-01 2.89e+01 3.04e-02  -9.0 1.35e+03 -12.6 4.36e-02 1.00e+00h  1
 267 -2.5643174e-01 4.90e+01 6.23e-02  -9.0 7.48e+03    -  2.47e-02 1.79e-01H  1
 268 -2.5643169e-01 4.71e+01 3.48e+00  -9.0 4.28e+03 -13.0 3.69e-01 6.80e-02h  2
 269 -2.5643178e-01 4.60e+01 2.76e+00  -9.0 1.20e+04 -13.5 2.11e-01 2.50e-02h  3
iter    objective    inf_pr   inf_du lg(mu)  ||d||  lg(rg) alpha_du alpha_pr  ls
 270 -2.5643185e-01 4.54e+01 2.47e+00  -9.0 1.99e+04    -  1.09e-01 1.26e-02h  3
 271 -2.5643225e-01 4.18e+01 1.55e+00  -9.0 4.38e+03    -  4.93e-01 2.43e-01h  1
 272 -2.5643326e-01 3.55e+01 8.00e-01  -9.0 1.62e+03    -  2.61e-02 1.00e+00H  1
 273 -2.5643324e-01 3.35e+01 7.21e-01  -9.0 1.67e+03    -  1.52e-01 6.31e-02h  1
 274 -2.5643305e-01 2.51e+01 1.55e+00  -9.0 1.08e+03    -  6.15e-01 1.00e+00h  1
 275 -2.5643297e-01 1.61e+01 1.35e+00  -9.0 2.65e+03    -  3.45e-02 1.31e-01H  1
 276 -2.5643298e-01 1.59e+01 1.29e+00  -9.0 5.80e+03    -  2.58e-01 1.78e-02h  5
 277 -2.5643277e-01 6.71e+00 4.29e-02  -9.0 1.34e+03    -  3.50e-01 1.00e+00H  1
 278 -2.5643303e-01 2.07e+00 1.32e-02  -9.0 1.12e+03    -  1.00e+00 1.00e+00H  1
 279 -2.5643297e-01 3.39e-01 3.53e-03  -9.0 5.67e+02    -  7.37e-01 1.00e+00H  1
iter    objective    inf_pr   inf_du lg(mu)  ||d||  lg(rg) alpha_du alpha_pr  ls
 280 -2.5643300e-01 1.35e+00 1.34e-04  -9.0 2.23e+02 -12.2 1.00e+00 1.00e+00h  1
 281 -2.5643310e-01 1.39e+01 7.04e-03  -9.0 3.50e+03    -  1.31e-01 2.41e-01h  2
 282 -2.5643312e-01 1.40e+01 3.67e-02  -9.0 4.82e+03    -  3.08e-01 3.65e-02h  4
 283 -2.5643315e-01 1.46e+01 3.14e-02  -9.0 2.46e+03    -  1.55e-01 1.49e-01h  3
 284 -2.5643319e-01 1.50e+01 4.37e-02  -9.0 2.41e+03    -  1.00e+00 1.47e-01h  3
 285 -2.5643327e-01 1.94e+01 8.96e-03  -9.0 9.60e+02    -  7.56e-01 1.00e+00h  1
 286 -2.5643330e-01 4.37e+00 1.66e-03  -9.0 4.30e+02    -  1.00e+00 1.00e+00h  1
 287 -2.5643327e-01 3.63e-01 1.43e-04  -9.0 1.32e+02    -  1.00e+00 1.00e+00h  1
 288 -2.5643327e-01 1.10e-03 4.64e-07  -9.0 7.42e+00    -  1.00e+00 1.00e+00h  1
 289 -2.5643327e-01 1.32e-07 3.89e-11  -9.0 7.62e-02    -  1.00e+00 1.00e+00h  1
iter    objective    inf_pr   inf_du lg(mu)  ||d||  lg(rg) alpha_du alpha_pr  ls
 290 -2.5643327e-01 2.83e-10 1.46e-14  -9.0 7.26e-08    -  1.00e+00 1.00e+00h  1

Number of Iterations....: 290

                                   (scaled)                 (unscaled)
Objective...............:  -2.5643327012561190e-01   -2.5643327012561190e-01
Dual infeasibility......:   1.4618514732056553e-14    1.4618514732056553e-14
Constraint violation....:   2.8301713891291241e-10    2.8301713891291241e-10
Complementarity.........:   9.0909092917233716e-10    9.0909092917233716e-10
Overall NLP error.......:   9.0909092917233716e-10    9.0909092917233716e-10


Number of objective function evaluations             = 514
Number of objective gradient evaluations             = 288
Number of equality constraint evaluations            = 515
Number of inequality constraint evaluations          = 515
Number of equality constraint Jacobian evaluations   = 292
Number of inequality constraint Jacobian evaluations = 292
Number of Lagrangian Hessian evaluations             = 290
Total CPU secs in IPOPT (w/o function evaluations)   =    613.503
Total CPU secs in NLP function evaluations           =     10.193

EXIT: Optimal Solution Found.
